c description: Random 3-CNF over 7 variables and 14 clauses
p cnf 7 14
-1 -3 -4 0
-3 -4 -5 0
4 -5 -7 0
1 4 -7 0
-1 -3 6 0
2 6 -7 0
1 -5 -6 0
-3 6 7 0
-3 -4 -7 0
-5 6 7 0
-2 5 -7 0
3 5 7 0
-2 5 -6 0
2 3 7 0